c colouring generated by benchmark framework
p edge 128 5198
v 1 51
v 2 34
v 3 41
v 4 8
v 5 6
v 6 36
v 7 21
v 8 26
v 9 65
v 10 40
v 11 5
v 12 30
v 13 32
v 14 68
v 15 2
v 16 29
v 17 9
v 18 50
v 19 44
v 20 63
v 21 62
v 22 45
v 23 38
v 24 65
v 25 69
v 26 72
v 27 0
v 28 41
v 29 0
v 30 48
v 31 23
v 32 22
v 33 25
v 34 17
v 35 13
v 36 7
v 37 18
v 38 70
v 39 14
v 40 60
v 41 50
v 42 32
v 43 4
v 44 37
v 45 72
v 46 55
v 47 32
v 48 4
v 49 40
v 50 45
v 51 36
v 52 49
v 53 17
v 54 43
v 55 24
v 56 2
v 57 58
v 58 61
v 59 38
v 60 31
v 61 46
v 62 39
v 63 61
v 64 13
v 65 33
v 66 66
v 67 56
v 68 62
v 69 30
v 70 64
v 71 33
v 72 40
v 73 5
v 74 59
v 75 29
v 76 15
v 77 1
v 78 3
v 79 27
v 80 46
v 81 3
v 82 24
v 83 37
v 84 43
v 85 27
v 86 28
v 87 16
v 88 9
v 89 20
v 90 45
v 91 10
v 92 6
v 93 53
v 94 23
v 95 3
v 96 25
v 97 20
v 98 17
v 99 71
v 100 12
v 101 67
v 102 60
v 103 35
v 104 39
v 105 7
v 106 1
v 107 19
v 108 8
v 109 28
v 110 11
v 111 47
v 112 20
v 113 42
v 114 1
v 115 22
v 116 35
v 117 31
v 118 51
v 119 21
v 120 34
v 121 19
v 122 16
v 123 18
v 124 7
v 125 2
v 126 52
v 127 54
v 128 57
